n = 5;               %njobs
d = [3,5,6,2,3];     %durations
prof=[3,5,-1,4,2];
dr=0.09;

m = 2;               %resources
L = [3,4];           % capacity by period
res = [| 1,2,2,2,1| 3,1,2,2,1 |];%resources by job

l = 2;               %number of predecesors
pre = [| 1,5         %(i,j)    
       | 5,2 |];

maxt = 20;           %DEADLINE
